(declare-const X String)
; Runner.*\x2Ehtml[^\n\r]*NetControl\x2EServer\d+media\x2Edxcdirect\x2Ecom\.smx\?PASSW=SAH
(assert (not (str.in_re X (re.++ (str.to_re "Runner") (re.* re.allchar) (str.to_re ".html") (re.* (re.union (str.to_re "\u{a}") (str.to_re "\u{d}"))) (str.to_re "NetControl.Server\u{13}") (re.+ (re.range "0" "9")) (str.to_re "media.dxcdirect.com.smx?PASSW=SAH\u{a}")))))
; HXDownloadUser-Agent\x3AanswerDeletingCookieReferer\x3A
(assert (not (str.in_re X (str.to_re "HXDownloadUser-Agent:answerDeletingCookieReferer:\u{a}"))))
; [^\d^\-^\,^\x20]+
(assert (str.in_re X (re.++ (re.+ (re.union (re.range "0" "9") (str.to_re "^") (str.to_re "-") (str.to_re ",") (str.to_re " "))) (str.to_re "\u{a}"))))
; /\/[a-z]{4}\.html\?j\=\d{6,7}$/Ui
(assert (str.in_re X (re.++ (str.to_re "//") ((_ re.loop 4 4) (re.range "a" "z")) (str.to_re ".html?j=") ((_ re.loop 6 7) (re.range "0" "9")) (str.to_re "/Ui\u{a}"))))
; Host\x3A\d+Litequick\x2Eqsrch\x2EcomaboutHost\x3AComputer\x7D\x7BSysuptime\x3A
(assert (str.in_re X (re.++ (str.to_re "Host:") (re.+ (re.range "0" "9")) (str.to_re "Litequick.qsrch.comaboutHost:Computer}{Sysuptime:\u{a}"))))
(check-sat)

(exit)
